
Gurobi 11.0.3 (win64, gurobi_cl) logging started Mon May 25 10:41:37 2026

Set parameter WLSAccessID
Set parameter WLSSecret
Set parameter LicenseID to value 2537843
Set parameter LogFile to value "gurobi.log"
Using license file C:\gurobi1103\win64\licenses\gurobi.lic

Gurobi 11.0.3 (win64, gurobi_cl) logging started Mon May 25 10:42:08 2026

Set parameter WLSAccessID
Set parameter WLSSecret
Set parameter LicenseID to value 2537843
Set parameter LogFile to value "gurobi.log"
Using license file C:\gurobi1103\win64\licenses\gurobi.lic

Gurobi 11.0.3 (win64, gurobi_cl) logging started Mon May 25 10:47:45 2026

Set parameter WLSAccessID
Set parameter WLSSecret
Set parameter LicenseID to value 2537843
Set parameter LogFile to value "gurobi.log"
Using license file C:\gurobi1103\win64\licenses\gurobi.lic
Academic license 2537843 - for non-commercial use only - registered to la___@ufmg.br

Gurobi 11.0.3 (win64) logging started Mon May 25 13:31:48 2026

Set parameter LogFile to value "Logs/gurobi.log"

Gurobi 11.0.3 (win64) logging started Mon May 25 13:48:43 2026

Set parameter LogFile to value "Logs/gurobi.log"

Gurobi 11.0.3 (win64) logging started Mon May 25 14:00:01 2026

Set parameter LogFile to value "Logs/gurobi.log"

Gurobi 11.0.3 (win64) logging started Mon May 25 14:07:54 2026

Set parameter LogFile to value "Logs/gurobi.log"

Gurobi 11.0.3 (win64) logging started Mon May 25 14:09:13 2026

Set parameter LogFile to value "Logs/gurobi.log"

Gurobi 11.0.3 (win64) logging started Mon May 25 14:10:12 2026

Set parameter LogFile to value "Logs/gurobi.log"
Set parameter TimeLimit to value 2.7161499370005913e+02
Gurobi Optimizer version 11.0.3 build v11.0.3rc0 (win64 - Windows 11+.0 (26200.2))

CPU model: 12th Gen Intel(R) Core(TM) i7-1255U, instruction set [SSE2|AVX|AVX2]
Thread count: 10 physical cores, 12 logical processors, using up to 12 threads

Academic license 2537843 - for non-commercial use only - registered to la___@ufmg.br
Optimize a model with 247451 rows, 6125050 columns and 18620050 nonzeros
Model fingerprint: 0x33517d14
Variable types: 0 continuous, 6125050 integer (6125050 binary)
Coefficient statistics:
  Matrix range     [1e+00, 1e+00]
  Objective range  [7e-01, 2e+04]
  Bounds range     [1e+00, 1e+00]
  RHS range        [1e+00, 3e+00]
Found heuristic solution: objective 427908.45955
Presolve removed 0 rows and 0 columns (presolve time = 5s) ...
Presolve removed 0 rows and 0 columns (presolve time = 10s) ...
Presolve removed 0 rows and 0 columns (presolve time = 15s) ...
Presolve removed 0 rows and 0 columns (presolve time = 20s) ...
Presolve removed 0 rows and 0 columns (presolve time = 27s) ...
Presolve removed 0 rows and 0 columns (presolve time = 30s) ...
Presolve time: 34.46s
Presolved: 247451 rows, 6125050 columns, 18620050 nonzeros
Variable types: 0 continuous, 6125050 integer (6125050 binary)
Found heuristic solution: objective 300527.00909
Deterministic concurrent LP optimizer: primal simplex, dual simplex, and barrier
Showing barrier log only...

Root barrier log...

Ordering time: 0.75s

Barrier statistics:
 Dense cols : 50
 AA' NZ     : 6.615e+06
 Factor NZ  : 2.242e+07 (roughly 3.0 GB of memory)
 Factor Ops : 2.174e+09 (less than 1 second per iteration)
 Threads    : 8

                  Objective                Residual
Iter       Primal          Dual         Primal    Dual     Compl     Time
   0   1.05328280e+08 -2.87769802e+04  2.50e+02 5.68e-14  2.18e+01    51s
   1   6.60781384e+06 -2.31190055e+06  1.47e+01 6.04e-04  1.49e+00    54s
   2   1.14395617e+06 -7.90167618e+05  1.87e+00 6.24e-05  2.35e-01    57s
   3   8.53824798e+05 -5.28916853e+05  1.20e+00 3.09e-05  1.47e-01    60s
   4   6.71492659e+05 -4.02032764e+05  7.96e-01 2.30e-05  1.04e-01    63s
   5   6.08641471e+05 -3.17850043e+05  6.59e-01 1.82e-05  8.57e-02    65s
   6   5.40106920e+05 -1.90603401e+05  5.15e-01 1.46e-05  6.31e-02    67s
   7   4.97838287e+05 -1.19060559e+05  4.31e-01 1.05e-05  5.12e-02    69s
   8   4.69830370e+05 -7.94420716e+04  3.81e-01 7.72e-06  4.46e-02    72s
   9   4.38334919e+05 -2.50345943e+04  3.26e-01 8.81e-06  3.64e-02    76s
  10   4.16035065e+05 -2.76705797e+03  2.90e-01 1.04e-05  3.25e-02    80s
  11   3.68818220e+05  3.07332962e+04  2.14e-01 1.62e-05  2.58e-02    84s
  12   3.42484645e+05  5.48983058e+04  1.76e-01 1.65e-05  2.16e-02    89s
  13   3.25092202e+05  8.10290155e+04  1.54e-01 2.41e-05  1.80e-02    93s
  14   3.08452272e+05  9.69191736e+04  1.35e-01 2.95e-05  1.55e-02    97s
  15   2.91292435e+05  1.11310530e+05  1.14e-01 2.94e-05  1.31e-02   102s
  16   2.71888001e+05  1.23198653e+05  9.33e-02 2.73e-05  1.07e-02   108s
  17   2.55047984e+05  1.32405863e+05  7.63e-02 2.88e-05  8.79e-03   112s
  18   2.39757378e+05  1.41728094e+05  6.14e-02 3.25e-05  6.98e-03   116s
  19   2.27173559e+05  1.48362978e+05  5.03e-02 3.34e-05  5.57e-03   121s
  20   2.13530918e+05  1.50975899e+05  3.87e-02 3.68e-05  4.43e-03   126s
  21   2.07061267e+05  1.53358305e+05  3.38e-02 3.70e-05  3.79e-03   131s
  22   2.01941044e+05  1.54490352e+05  3.01e-02 3.25e-05  3.34e-03   135s
  23   1.97541103e+05  1.55087931e+05  2.71e-02 3.22e-05  2.99e-03   140s
  24   1.94663068e+05  1.55625439e+05  2.51e-02 4.14e-05  2.74e-03   144s
  25   1.90752349e+05  1.55878183e+05  2.25e-02 4.06e-05  2.45e-03   148s
  26   1.87865383e+05  1.56096634e+05  2.08e-02 3.49e-05  2.23e-03   153s
  27   1.85904785e+05  1.56299217e+05  1.96e-02 6.13e-05  2.07e-03   157s
  28   1.77860165e+05  1.56476670e+05  1.44e-02 1.49e-04  1.49e-03   161s
  29   1.66719929e+05  1.56534949e+05  6.82e-03 1.19e-04  7.11e-04   166s
  30   1.58267206e+05  1.56564895e+05  1.09e-03 8.79e-05  1.20e-04   170s
  31   1.56574942e+05  1.56568746e+05  2.81e-06 1.49e-05  4.53e-07   173s
  32   1.56568770e+05  1.56568766e+05  1.70e-09 3.72e-08  3.48e-10   176s
  33   1.56568766e+05  1.56568766e+05  5.25e-14 4.09e-10  3.93e-16   178s

Barrier solved model in 33 iterations and 177.71 seconds (135.52 work units)
Optimal objective 1.56568766e+05


Root crossover log...

  237651 DPushes remaining with DInf 0.0000000e+00               180s
       0 DPushes remaining with DInf 0.0000000e+00               182s

       0 PPushes remaining with PInf 0.0000000e+00               183s

  Push phase complete: Pinf 0.0000000e+00, Dinf 1.4317880e-11    183s


Root simplex log...

Iteration    Objective       Primal Inf.    Dual Inf.      Time
   46583    1.5656877e+05   0.000000e+00   0.000000e+00    183s
Concurrent spin time: 33.78s (can be avoided by choosing Method=3)

Solved with barrier

Root relaxation: objective 1.565688e+05, 46583 iterations, 179.14 seconds (66.34 work units)

    Nodes    |    Current Node    |     Objective Bounds      |     Work
 Expl Unexpl |  Obj  Depth IntInf | Incumbent    BestBd   Gap | It/Node Time

*    0     0               0    156568.76581 156568.766  0.00%     -  217s

Explored 1 nodes (46583 simplex iterations) in 218.45 seconds (136.45 work units)
Thread count was 12 (of 12 available processors)

Solution count 3: 156569 300527 427908 

Optimal solution found (tolerance 1.00e-04)
Best objective 1.565687658065e+05, best bound 1.565687658065e+05, gap 0.0000%
